13 12
11 10
12 6
8 18
14 13
7 17
13 14
7 11
12 13
10 12
11 12
15 18
5 18
13 14
15 12
6 10
8 8
6 20
6 4
14 15
13 4
15 12
13 18
14 19
11 20
7 6
10 3
6 5
14 14
12 8
13 15
8 6
15 16
14 3
11 5
9 3
10 14
15 19
11 11
11 19
9 15
12 14
12 8
13 5
7 3
14 3
10 19
5 17
8 5
15 16
5 16
8 12
12 12
12 16
7 10
7 14
11 12
7 9
12 8
6 19
11 14
9 5
8 3
9 8
12 6
13 5
15 10
5 8
8 20
11 20
6 10
9 13
9 16
11 9
15 10
8 11
11 19
9 18
10 12
8 9
13 10
7 17
7 13
10 20
5 19
11 14
12 10
10 10
5 6
5 19
7 7
9 18
9 18
8 12
14 18
9 18
13 8
12 17
15 17
15 15